100 5
25 200
10
30
10
10
10
20
20
20
10
10
10
20
30
10
40
40
20
20
10
10
20
20
10
10
40
10
10
20
10
10
20
30
40
20
10
10
20
30
20
10
10
20
10
10
10
30
10
10
10
10
10
10
20
40
10
30
40
30
10
20
10
20
50
10
10
10
10
10
10
30
20
10
10
50
20
10
10
20
10
10
30
20
10
20
30
10
20
30
10
10
10
20
40
10
30
10
30
20
10
20
40 50 0 1236 0 0
45 68 912 967 90 3
45 70 825 870 90 2
42 66 65 146 90 3
42 68 727 782 90 2
42 65 15 67 90 2
40 69 621 702 90 1
40 66 170 225 90 1
38 68 255 324 90 1
38 70 534 605 90 1
35 66 357 410 90 3
35 69 448 505 90 1
25 85 652 721 90 1
22 75 30 92 90 3
22 85 567 620 90 1
20 80 384 429 90 1
20 85 475 528 90 2
18 75 99 148 90 1
15 75 179 254 90 1
15 80 278 345 90 1
30 50 10 73 90 2
30 52 914 965 90 3
28 52 812 883 90 2
28 55 732 777 90 2
25 50 65 144 90 1
25 52 169 224 90 2
25 55 622 701 90 2
23 52 261 316 90 1
23 55 546 593 90 1
20 50 358 405 90 1
20 55 449 504 90 1
10 35 200 237 90 2
10 40 31 100 90 1
8 40 87 158 90 2
8 45 751 816 90 2
5 35 283 344 90 3
5 45 665 716 90 3
2 40 383 434 90 2
0 40 479 522 90 2
0 45 567 624 90 3
35 30 264 321 90 2
35 32 166 235 90 2
33 32 68 149 90 1
33 35 16 80 90 2
32 30 359 412 90 3
30 30 541 600 90 1
30 32 448 509 90 3
30 35 1054 1127 90 1
28 30 632 693 90 2
28 35 1001 1066 90 2
26 32 815 880 90 1
25 30 725 786 90 2
25 35 912 969 90 3
44 5 286 347 90 1
42 10 186 257 90 2
42 15 95 158 90 1
40 5 385 436 90 1
40 15 35 87 90 1
38 5 471 534 90 3
38 15 651 740 90 1
35 5 562 629 90 1
50 30 531 610 90 3
50 35 262 317 90 2
50 40 171 218 90 3
48 30 632 693 90 2
48 40 76 129 90 2
47 35 826 875 90 2
47 40 12 77 90 2
45 30 734 777 90 3
45 35 916 969 90 2
95 30 387 456 90 3
95 35 293 360 90 2
53 30 450 505 90 3
92 30 478 551 90 3
53 35 353 412 90 1
45 65 997 1068 90 1
90 35 203 260 90 2
88 30 574 643 90 3
88 35 109 170 90 1
87 30 668 731 90 1
85 25 769 820 90 3
85 35 47 124 90 2
75 55 369 420 90 2
72 55 265 338 90 3
70 58 458 523 90 2
68 60 555 612 90 1
66 55 173 238 90 3
65 55 85 144 90 2
65 60 645 708 90 1
63 58 737 802 90 3
60 55 20 84 90 3
60 60 836 889 90 3
67 85 368 441 90 2
65 85 475 518 90 3
65 82 285 336 90 3
62 80 196 239 90 1
60 80 95 156 90 2
60 85 561 622 90 2
58 75 30 84 90 1
55 80 743 820 90 2
55 85 647 726 90 1
37 61 0 1236 45 4
71 75 0 1236 45 4
86 46 0 1236 45 4
55 41 0 1236 45 4
27 18 0 1236 45 4
1 0 0 0 0
1 0 0 0 0
1 0 0 0 0
1 0 0 0 0
1 0 0 0 0
0 0 0 0 0
0 0 0 0 0
0 0 0 0 0
0 0 0 0 0
1 0 0 0 0
0 0 0 0 0
0 0 0 0 0
1 0 0 0 0
0 0 0 0 0
0 0 0 0 0
1 0 0 0 0
0 0 0 0 0
0 0 0 0 0
0 0 0 0 0
1 0 0 0 0
1 0 0 0 0
1 0 0 0 0
1 0 0 0 0
0 0 0 0 0
1 0 0 0 0
1 0 0 0 0
0 0 0 0 0
0 0 0 0 0
0 0 0 0 0
0 0 0 0 0
0 0 0 0 1
0 0 0 0 0
0 0 0 0 1
0 0 0 0 1
0 0 0 0 1
0 0 0 0 1
0 0 0 0 1
0 0 0 0 1
0 0 0 0 1
0 0 0 0 1
0 0 0 0 1
0 0 0 0 0
0 0 0 0 1
0 0 0 0 1
0 0 0 0 0
0 0 0 0 1
0 0 0 0 0
0 0 0 0 1
0 0 0 0 1
0 0 0 0 0
0 0 0 0 1
0 0 0 0 1
0 0 0 0 0
0 0 0 0 1
0 0 0 0 0
0 0 0 0 0
0 0 0 0 0
0 0 0 0 1
0 0 0 0 0
0 0 0 0 0
0 0 0 1 0
0 0 0 1 0
0 0 0 1 0
0 0 0 1 0
0 0 0 1 0
0 0 0 1 0
0 0 0 1 0
0 0 0 1 0
0 0 0 1 0
0 0 1 0 0
0 0 1 0 0
0 0 0 1 0
0 0 1 0 0
0 0 0 0 0
0 0 0 0 0
0 0 1 0 0
0 0 1 0 0
0 0 0 0 0
0 0 0 0 0
0 0 1 0 0
0 0 1 0 0
0 0 1 0 0
0 0 1 0 0
0 1 0 0 0
0 0 0 0 0
0 0 0 1 0
0 0 0 1 0
0 0 0 0 0
0 1 0 0 0
0 0 0 1 0
0 1 0 0 0
0 1 0 0 0
0 1 0 0 0
0 1 0 0 0
0 0 0 0 0
0 1 0 0 0
0 1 0 0 0
0 0 0 0 0
0 1 0 0 0
0 0 0 0 0
